GLPSOL: GLPK LP/MIP Solver, v4.57
Parameter(s) specified in the command line:
 --model c2gen4.mod
Reading model section from c2gen4.mod...
Reading data section from c2gen4.mod...
558 lines were read
Generating first...
Generating second...
Generating third...
Generating cr0...
Generating cr1...
Generating cr2...
Generating cr3...
Generating cr4...
Generating cr5...
Generating cr6...
Generating cr7...
Generating cr8...
Generating cr9...
Generating cr10...
Generating cr11...
Generating cr12...
Generating cr13...
Generating cr14...
Generating ct0...
Generating ct1...
Generating ct2...
Generating ct3...
Generating ct4...
Generating obj...
Model has been successfully generated
GLPK Integer Optimizer, v4.57
117 rows, 4800 columns, 24640 non-zeros
4800 integer variables, all of which are binary
Preprocessing...
96 rows, 996 columns, 2988 non-zeros
996 integer variables, all of which are binary
Scaling...
 A: min|aij| =  1.000e+00  max|aij| =  1.000e+00  ratio =  1.000e+00
Problem data seem to be well scaled
Constructing initial basis...
Size of triangular part is 96
Solving LP relaxation...
GLPK Simplex Optimizer, v4.57
96 rows, 996 columns, 2988 non-zeros
      0: obj =   6.400000000e+01 inf =   2.300e+01 (4)
     47: obj =   4.100000000e+01 inf =   0.000e+00 (0)
*    68: obj =   3.700000000e+01 inf =   0.000e+00 (0)
OPTIMAL LP SOLUTION FOUND
Integer optimization begins...
+    68: mip =     not found yet >=              -inf        (1; 0)
+    68: >>>>>   3.700000000e+01 >=   3.700000000e+01   0.0% (1; 0)
+    68: mip =   3.700000000e+01 >=     tree is empty   0.0% (0; 1)
INTEGER OPTIMAL SOLUTION FOUND
Time used:   0.0 secs
Memory used: 7.6 Mb (7919775 bytes)
result: c:0 r:14 t:2 time:2
result: c:1 r:4 t:1 time:3
result: c:2 r:8 t:4 time:0
result: c:3 r:4 t:1 time:0
result: c:4 r:8 t:0 time:3
result: c:5 r:4 t:0 time:1
result: c:6 r:0 t:3 time:0
result: c:7 r:4 t:0 time:2
result: c:8 r:11 t:0 time:0
result: c:9 r:0 t:1 time:1
result: c:10 r:2 t:2 time:1
result: c:11 r:0 t:1 time:2
result: c:12 r:1 t:2 time:0
result: c:13 r:1 t:3 time:1
result: c:14 r:1 t:3 time:2
result: c:15 r:13 t:3 time:3
Model has been successfully processed

Timeslot used: 4
